decision_x1=[0,4];
decision_x2=[0,4];
decision_x3=[0,4];
decision_x4=[0,4];
decision_x5=[0,4];
random_y1=[0,4];
constraint_x2_x1=[
0,1,1.7|
0,2,2.9|
0,3,1.4|
0,4,8.3|
1,0,1.8|
1,2,9.4|
1,3,0.5|
1,4,7.2|
2,0,1.3|
2,1,3.6|
2,3,4.1|
2,4,2|
3,0,4.4|
3,1,6.5|
3,2,6.7|
3,4,9.9|
4,0,5.2|
4,1,7.2|
4,2,3.3|
4,3,7.9|
];
constraint_x3_x1=[
0,1,5.9|
0,2,1.1|
0,3,1.3|
0,4,8.1|
1,0,9.4|
1,2,0.38|
1,3,3|
1,4,2|
2,0,7.5|
2,1,0.3|
2,3,2.4|
2,4,7.9|
3,0,1.5|
3,1,6.4|
3,2,5.7|
3,4,1.1|
4,0,0.81|
4,1,4.4|
4,2,9.9|
4,3,0.25|
];
constraint_x3_x2=[
0,1,1.3|
0,2,2.4|
0,3,2.2|
0,4,8|
1,0,8.1|
1,2,0.1|
1,3,4.9|
1,4,5.1|
2,0,0.32|
2,1,2.6|
2,3,3|
2,4,6.6|
3,0,3|
3,1,3.8|
3,2,7.4|
3,4,5.6|
4,0,8.9|
4,1,1.9|
4,2,1.1|
4,3,1.9|
];
constraint_x4_x1=[
0,1,6.8|
0,2,7.1|
0,3,4.1|
0,4,6.8|
1,0,0.051|
1,2,3.4|
1,3,2.9|
1,4,2.9|
2,0,1.3|
2,1,5.1|
2,3,2.5|
2,4,1.5|
3,0,9.5|
3,1,3.7|
3,2,2.7|
3,4,9.8|
4,0,1.8|
4,1,0.69|
4,2,0.78|
4,3,0.06|
];
constraint_x5_x4=[
0,1,1.1|
0,2,8|
0,3,0.011|
0,4,6.2|
1,0,0.78|
1,2,9.6|
1,3,3.5|
1,4,2.7|
2,0,1.4|
2,1,6.7|
2,3,8.2|
2,4,1.8|
3,0,1.9|
3,1,3.9|
3,2,5.7|
3,4,4.5|
4,0,7.3|
4,1,8.9|
4,2,8.2|
4,3,1.5|
];
constraint_x1_y1=[
0,0,1.2|
0,1,6.8|
0,2,2.7|
0,3,1.9|
0,4,5.8|
1,0,7.5|
1,1,8.4|
1,2,1.1|
1,3,7.8|
1,4,7.5|
2,0,1.8|
2,1,6.5|
2,2,8.3|
2,3,9.8|
2,4,6.8|
3,0,2|
3,1,8.2|
3,2,2.2|
3,3,7.7|
3,4,0.71|
4,0,4.7|
4,1,3|
4,2,8|
4,3,2.9|
4,4,0.77|
];
initial_distribution_y1=[0.22,0.28,0.26,0.016,0.23];
transition_y1=[
0.13,0.31,0.22,0.1,0.24|
0.14,0.22,0.32,0.2,0.11|
0.11,0.33,0.18,0.22,0.16|
0.37,0.23,0.26,0.087,0.052|
0.16,0.29,0.032,0.11,0.41|
];
